c Reduced graph for miles250_2 generated by Cyril Grelier
p edge 105 330
e 1 2
e 1 3
e 1 4
e 1 5
e 1 6
e 1 8
e 1 9
e 1 10
e 1 11
e 1 14
e 1 16
e 1 17
e 1 18
e 1 21
e 1 28
e 1 34
e 2 3
e 2 4
e 2 5
e 2 6
e 2 8
e 2 9
e 2 10
e 2 11
e 2 13
e 2 16
e 2 21
e 2 22
e 2 28
e 2 34
e 3 5
e 3 8
e 3 9
e 3 10
e 3 14
e 3 15
e 3 17
e 3 18
e 3 21
e 3 25
e 3 29
e 3 38
e 4 5
e 4 6
e 4 9
e 4 10
e 4 11
e 4 13
e 4 22
e 4 28
e 4 34
e 4 36
e 4 43
e 5 6
e 5 8
e 5 9
e 5 10
e 5 11
e 5 13
e 5 21
e 5 22
e 5 28
e 6 9
e 6 10
e 6 11
e 6 13
e 6 22
e 6 28
e 6 34
e 6 36
e 6 43
e 7 12
e 7 14
e 7 15
e 7 17
e 7 18
e 7 19
e 7 20
e 7 23
e 7 24
e 7 26
e 7 33
e 7 47
e 7 93
e 8 9
e 8 10
e 8 14
e 8 21
e 8 25
e 8 29
e 8 38
e 8 40
e 9 10
e 9 11
e 9 13
e 9 21
e 9 25
e 10 13
e 10 21
e 10 22
e 10 43
e 11 13
e 11 16
e 11 22
e 11 28
e 11 34
e 11 36
e 12 14
e 12 15
e 12 16
e 12 17
e 12 18
e 12 19
e 12 20
e 12 23
e 12 24
e 12 26
e 13 21
e 13 22
e 13 36
e 13 43
e 14 15
e 14 16
e 14 17
e 14 18
e 14 23
e 14 29
e 15 16
e 15 17
e 15 18
e 15 19
e 15 23
e 15 24
e 15 29
e 16 17
e 16 18
e 16 23
e 16 28
e 17 18
e 17 19
e 17 23
e 18 19
e 18 23
e 19 20
e 19 23
e 19 24
e 19 26
e 20 24
e 20 26
e 20 30
e 20 31
e 20 33
e 20 47
e 21 25
e 22 36
e 22 43
e 23 24
e 24 26
e 24 33
e 24 47
e 25 29
e 25 38
e 25 40
e 25 41
e 25 81
e 26 30
e 26 31
e 26 33
e 27 35
e 27 37
e 27 42
e 27 44
e 27 50
e 27 58
e 27 73
e 27 77
e 28 34
e 29 38
e 29 40
e 29 41
e 30 31
e 30 33
e 30 35
e 30 42
e 30 44
e 30 74
e 31 35
e 31 42
e 31 44
e 31 73
e 31 74
e 32 46
e 32 48
e 32 60
e 32 61
e 32 62
e 32 65
e 32 90
e 32 92
e 33 47
e 33 63
e 33 74
e 34 36
e 35 37
e 35 42
e 35 44
e 35 73
e 36 43
e 37 42
e 37 44
e 37 50
e 37 73
e 37 77
e 38 40
e 38 41
e 38 93
e 39 59
e 39 64
e 39 66
e 39 70
e 39 72
e 39 75
e 39 76
e 40 41
e 40 69
e 40 81
e 41 69
e 41 81
e 41 93
e 42 44
e 45 51
e 45 52
e 45 53
e 45 54
e 45 55
e 45 78
e 46 48
e 46 60
e 46 61
e 46 62
e 46 69
e 47 63
e 47 74
e 48 60
e 48 61
e 48 62
e 48 65
e 49 68
e 49 71
e 49 72
e 49 80
e 49 82
e 49 91
e 50 58
e 50 67
e 50 77
e 50 94
e 51 52
e 51 53
e 51 54
e 51 55
e 52 53
e 52 54
e 52 55
e 53 54
e 53 55
e 54 55
e 56 57
e 56 83
e 56 84
e 56 87
e 56 89
e 57 83
e 57 84
e 57 87
e 57 89
e 58 67
e 58 77
e 58 94
e 59 64
e 59 72
e 59 76
e 59 80
e 60 61
e 60 62
e 61 69
e 62 65
e 63 71
e 63 74
e 63 82
e 64 66
e 64 70
e 64 79
e 65 90
e 65 92
e 66 70
e 66 75
e 66 79
e 67 68
e 67 73
e 67 94
e 68 71
e 68 82
e 68 91
e 69 81
e 70 75
e 70 76
e 71 72
e 71 82
e 72 80
e 75 76
e 78 85
e 78 86
e 78 88
e 79 96
e 79 97
e 80 91
e 83 84
e 85 86
e 85 88
e 86 88
e 87 89
e 90 92
e 95 98
e 95 99
e 96 97
e 98 99
e 100 101
e 102 103
e 104 105
